HUN,8,6,514
3,26,1,25,0,27,4,30,5,23,2,22
5,22,0,28,4,23,3,24,1,25,2,26
3,30,0,25,1,25,5,21,4,26,2,28
3,25,1,29,4,23,5,28,2,26,0,23
1,27,2,21,0,27,5,29,3,21,4,28
1,28,5,29,0,21,3,30,4,23,2,27
3,30,1,21,2,23,4,21,5,22,0,25
1,21,4,29,3,22,0,22,5,23,2,24
